52 52
5 3
4 3
51 18
13 8
50 16
26 1
7 14
8 12
14 23
19 13
6 17
30 21
11 10
25 14
28 26
27 26
43 18
10 2
47 6
23 4
24 15
35 2
29 6
46 1
32 24
52 22
44 12
9 24
33 5
12 10
17 22
42 9
34 16
2 25
38 20
1 25
45 20
48 4
16 8
21 13
37 9
41 7
3 11
49 19
39 5
20 17
40 23
31 19
18 7
15 11
36 21
22 15
